Route #1: 0 33 35 51 8 27 10 44 37 0
Route #2: 0 29 5 6 25 36 40 0
Route #3: 0 1 18 30 20 42 0
Route #4: 0 41 47 7 43 48 9 0
Route #5: 0 38 46 13 34 32 19 15 17 22 45 4 0
Route #6: 0 2 16 26 49 50 12 23 0
Route #7: 0 3 31 24 39 14 21 11 28 0
Cost 837:
